c File: data_files/evolved_graphs/g8179.col
c
c Auto generated graph
c
p edge 100 1480
e 1 7
e 1 10
e 1 12
e 1 20
e 1 22
e 1 30
e 1 31
e 1 36
e 1 38
e 1 41
e 1 42
e 1 43
e 1 46
e 1 47
e 1 50
e 1 52
e 1 54
e 1 61
e 1 63
e 1 67
e 1 74
e 1 75
e 1 82
e 1 84
e 1 87
e 1 92
e 1 94
e 1 97
e 1 98
e 1 99
e 1 100
e 2 4
e 2 5
e 2 9
e 2 13
e 2 16
e 2 25
e 2 27
e 2 29
e 2 33
e 2 41
e 2 43
e 2 47
e 2 48
e 2 52
e 2 55
e 2 61
e 2 66
e 2 76
e 2 77
e 2 78
e 2 80
e 2 81
e 2 82
e 2 84
e 2 85
e 2 89
e 2 93
e 2 96
e 2 98
e 2 100
e 3 10
e 3 11
e 3 14
e 3 16
e 3 17
e 3 22
e 3 26
e 3 28
e 3 29
e 3 51
e 3 54
e 3 55
e 3 59
e 3 61
e 3 64
e 3 69
e 3 72
e 3 73
e 3 76
e 3 77
e 3 80
e 3 85
e 3 89
e 3 91
e 3 92
e 3 96
e 3 99
e 4 5
e 4 11
e 4 12
e 4 16
e 4 17
e 4 19
e 4 20
e 4 23
e 4 30
e 4 31
e 4 33
e 4 51
e 4 54
e 4 56
e 4 57
e 4 61
e 4 67
e 4 70
e 4 72
e 4 74
e 4 77
e 4 78
e 4 79
e 4 83
e 4 85
e 4 86
e 4 90
e 4 93
e 4 95
e 4 97
e 4 98
e 5 6
e 5 13
e 5 16
e 5 20
e 5 26
e 5 28
e 5 30
e 5 35
e 5 38
e 5 40
e 5 42
e 5 43
e 5 48
e 5 58
e 5 63
e 5 65
e 5 67
e 5 70
e 5 71
e 5 74
e 5 80
e 5 82
e 5 85
e 5 88
e 5 91
e 5 94
e 5 96
e 6 16
e 6 17
e 6 19
e 6 22
e 6 28
e 6 30
e 6 33
e 6 37
e 6 40
e 6 41
e 6 46
e 6 47
e 6 54
e 6 57
e 6 58
e 6 59
e 6 61
e 6 62
e 6 66
e 6 70
e 6 71
e 6 74
e 6 75
e 6 77
e 6 85
e 6 87
e 6 96
e 6 97
e 6 98
e 6 99
e 7 12
e 7 13
e 7 14
e 7 16
e 7 20
e 7 24
e 7 27
e 7 30
e 7 32
e 7 34
e 7 35
e 7 41
e 7 48
e 7 50
e 7 53
e 7 54
e 7 57
e 7 60
e 7 61
e 7 62
e 7 66
e 7 78
e 7 80
e 7 81
e 7 89
e 7 90
e 7 91
e 7 92
e 7 99
e 8 9
e 8 10
e 8 13
e 8 17
e 8 28
e 8 31
e 8 33
e 8 34
e 8 39
e 8 44
e 8 45
e 8 48
e 8 51
e 8 52
e 8 53
e 8 56
e 8 62
e 8 65
e 8 67
e 8 69
e 8 73
e 8 79
e 8 83
e 8 84
e 8 88
e 8 91
e 8 92
e 8 95
e 8 97
e 8 99
e 8 100
e 9 18
e 9 21
e 9 22
e 9 24
e 9 25
e 9 29
e 9 33
e 9 36
e 9 37
e 9 45
e 9 48
e 9 51
e 9 53
e 9 54
e 9 56
e 9 58
e 9 63
e 9 66
e 9 69
e 9 74
e 9 78
e 9 85
e 9 89
e 9 93
e 9 96
e 9 97
e 9 100
e 10 12
e 10 13
e 10 15
e 10 16
e 10 18
e 10 21
e 10 26
e 10 28
e 10 37
e 10 44
e 10 45
e 10 48
e 10 49
e 10 51
e 10 53
e 10 55
e 10 59
e 10 68
e 10 70
e 10 73
e 10 75
e 10 76
e 10 77
e 10 79
e 10 86
e 10 91
e 10 98
e 10 100
e 11 12
e 11 18
e 11 19
e 11 24
e 11 27
e 11 34
e 11 40
e 11 44
e 11 46
e 11 50
e 11 51
e 11 54
e 11 57
e 11 59
e 11 60
e 11 63
e 11 64
e 11 65
e 11 74
e 11 78
e 11 79
e 11 84
e 11 85
e 11 90
e 11 92
e 11 94
e 11 95
e 11 98
e 12 20
e 12 26
e 12 27
e 12 29
e 12 30
e 12 37
e 12 44
e 12 46
e 12 53
e 12 54
e 12 55
e 12 58
e 12 62
e 12 65
e 12 69
e 12 77
e 12 79
e 12 81
e 12 82
e 12 84
e 12 93
e 12 97
e 13 17
e 13 23
e 13 27
e 13 35
e 13 40
e 13 41
e 13 46
e 13 50
e 13 51
e 13 52
e 13 53
e 13 56
e 13 62
e 13 68
e 13 76
e 13 80
e 13 81
e 13 82
e 13 83
e 13 86
e 13 89
e 13 94
e 13 98
e 14 16
e 14 18
e 14 28
e 14 33
e 14 39
e 14 40
e 14 42
e 14 43
e 14 48
e 14 49
e 14 52
e 14 54
e 14 55
e 14 56
e 14 57
e 14 60
e 14 69
e 14 72
e 14 73
e 14 75
e 14 80
e 14 81
e 14 84
e 14 85
e 14 86
e 14 93
e 14 94
e 14 97
e 15 18
e 15 20
e 15 25
e 15 29
e 15 32
e 15 38
e 15 40
e 15 44
e 15 48
e 15 51
e 15 56
e 15 59
e 15 60
e 15 63
e 15 64
e 15 73
e 15 74
e 15 77
e 15 81
e 15 92
e 15 93
e 15 95
e 15 97
e 15 98
e 15 100
e 16 24
e 16 29
e 16 30
e 16 38
e 16 39
e 16 41
e 16 45
e 16 51
e 16 52
e 16 53
e 16 55
e 16 56
e 16 66
e 16 69
e 16 75
e 16 85
e 16 90
e 16 94
e 16 97
e 16 98
e 17 23
e 17 32
e 17 35
e 17 38
e 17 39
e 17 52
e 17 54
e 17 57
e 17 58
e 17 62
e 17 63
e 17 66
e 17 67
e 17 69
e 17 74
e 17 80
e 17 81
e 17 83
e 17 87
e 17 93
e 17 96
e 17 98
e 17 100
e 18 23
e 18 26
e 18 28
e 18 34
e 18 35
e 18 40
e 18 47
e 18 51
e 18 52
e 18 55
e 18 56
e 18 58
e 18 60
e 18 61
e 18 70
e 18 77
e 18 84
e 18 87
e 18 94
e 18 95
e 18 100
e 19 26
e 19 27
e 19 30
e 19 31
e 19 33
e 19 36
e 19 37
e 19 38
e 19 42
e 19 57
e 19 60
e 19 76
e 19 77
e 19 79
e 19 81
e 19 87
e 19 91
e 19 92
e 19 93
e 19 94
e 19 95
e 19 96
e 19 99
e 20 23
e 20 24
e 20 25
e 20 27
e 20 28
e 20 32
e 20 34
e 20 36
e 20 52
e 20 58
e 20 65
e 20 75
e 20 77
e 20 81
e 20 84
e 20 85
e 20 86
e 20 89
e 20 92
e 20 95
e 20 97
e 20 98
e 20 99
e 21 24
e 21 26
e 21 27
e 21 30
e 21 39
e 21 42
e 21 44
e 21 45
e 21 46
e 21 53
e 21 56
e 21 57
e 21 58
e 21 59
e 21 61
e 21 63
e 21 72
e 21 75
e 21 77
e 21 80
e 21 82
e 21 83
e 21 85
e 21 86
e 21 88
e 21 91
e 21 99
e 22 27
e 22 29
e 22 32
e 22 35
e 22 37
e 22 40
e 22 41
e 22 42
e 22 43
e 22 48
e 22 49
e 22 50
e 22 51
e 22 54
e 22 65
e 22 66
e 22 72
e 22 76
e 22 86
e 22 87
e 22 88
e 22 89
e 22 92
e 22 95
e 22 97
e 22 98
e 22 99
e 23 24
e 23 41
e 23 45
e 23 54
e 23 60
e 23 63
e 23 64
e 23 65
e 23 68
e 23 69
e 23 70
e 23 71
e 23 72
e 23 73
e 23 74
e 23 75
e 23 77
e 23 81
e 23 84
e 23 87
e 23 90
e 23 94
e 23 95
e 23 96
e 23 97
e 24 26
e 24 34
e 24 35
e 24 38
e 24 41
e 24 44
e 24 46
e 24 49
e 24 50
e 24 53
e 24 55
e 24 57
e 24 58
e 24 63
e 24 69
e 24 71
e 24 79
e 24 86
e 24 87
e 24 89
e 24 95
e 24 97
e 25 29
e 25 31
e 25 34
e 25 35
e 25 36
e 25 37
e 25 39
e 25 46
e 25 50
e 25 51
e 25 55
e 25 67
e 25 68
e 25 70
e 25 72
e 25 75
e 25 81
e 25 82
e 25 83
e 25 86
e 25 89
e 25 92
e 25 93
e 25 96
e 25 98
e 25 100
e 26 29
e 26 32
e 26 36
e 26 37
e 26 39
e 26 41
e 26 42
e 26 60
e 26 61
e 26 65
e 26 67
e 26 71
e 26 76
e 26 78
e 26 82
e 26 83
e 26 84
e 26 88
e 26 91
e 26 92
e 26 95
e 26 96
e 26 98
e 27 30
e 27 36
e 27 38
e 27 40
e 27 51
e 27 54
e 27 55
e 27 62
e 27 63
e 27 65
e 27 68
e 27 69
e 27 72
e 27 73
e 27 76
e 27 82
e 27 84
e 27 86
e 27 88
e 27 91
e 27 93
e 27 96
e 28 36
e 28 45
e 28 47
e 28 49
e 28 51
e 28 53
e 28 64
e 28 67
e 28 70
e 28 71
e 28 73
e 28 78
e 28 81
e 28 82
e 28 85
e 28 86
e 28 92
e 28 93
e 28 95
e 28 99
e 29 31
e 29 44
e 29 46
e 29 47
e 29 52
e 29 54
e 29 56
e 29 59
e 29 61
e 29 65
e 29 71
e 29 74
e 29 76
e 29 78
e 29 80
e 29 81
e 29 82
e 29 83
e 29 84
e 29 88
e 29 91
e 29 97
e 30 32
e 30 34
e 30 45
e 30 47
e 30 49
e 30 50
e 30 51
e 30 57
e 30 58
e 30 66
e 30 69
e 30 76
e 30 77
e 30 79
e 30 80
e 30 83
e 30 91
e 30 92
e 31 35
e 31 42
e 31 44
e 31 51
e 31 53
e 31 56
e 31 64
e 31 67
e 31 74
e 31 75
e 31 77
e 31 78
e 31 80
e 31 81
e 31 82
e 31 83
e 31 87
e 31 90
e 31 91
e 31 94
e 31 99
e 32 35
e 32 36
e 32 39
e 32 43
e 32 47
e 32 49
e 32 51
e 32 52
e 32 55
e 32 57
e 32 58
e 32 60
e 32 66
e 32 68
e 32 69
e 32 71
e 32 72
e 32 73
e 32 74
e 32 78
e 32 79
e 32 80
e 32 88
e 32 89
e 32 98
e 32 100
e 33 34
e 33 48
e 33 50
e 33 52
e 33 57
e 33 58
e 33 61
e 33 65
e 33 66
e 33 67
e 33 73
e 33 75
e 33 76
e 33 77
e 33 82
e 33 87
e 33 88
e 33 92
e 33 98
e 34 36
e 34 40
e 34 41
e 34 43
e 34 44
e 34 45
e 34 47
e 34 48
e 34 50
e 34 54
e 34 55
e 34 59
e 34 63
e 34 65
e 34 68
e 34 70
e 34 72
e 34 79
e 34 81
e 34 83
e 34 85
e 34 87
e 34 90
e 34 91
e 34 92
e 34 93
e 35 40
e 35 42
e 35 44
e 35 46
e 35 48
e 35 55
e 35 58
e 35 66
e 35 67
e 35 68
e 35 69
e 35 70
e 35 71
e 35 82
e 35 83
e 35 85
e 35 87
e 35 91
e 35 94
e 35 95
e 36 37
e 36 39
e 36 41
e 36 42
e 36 44
e 36 52
e 36 53
e 36 54
e 36 55
e 36 58
e 36 64
e 36 72
e 36 73
e 36 76
e 36 79
e 36 81
e 36 83
e 36 85
e 36 94
e 36 98
e 37 41
e 37 47
e 37 48
e 37 50
e 37 55
e 37 56
e 37 57
e 37 66
e 37 68
e 37 69
e 37 71
e 37 72
e 37 73
e 37 75
e 37 78
e 37 79
e 37 80
e 37 81
e 37 83
e 37 91
e 38 41
e 38 42
e 38 45
e 38 48
e 38 52
e 38 54
e 38 55
e 38 59
e 38 63
e 38 67
e 38 71
e 38 73
e 38 77
e 38 87
e 38 88
e 38 93
e 38 95
e 38 99
e 38 100
e 39 43
e 39 53
e 39 55
e 39 66
e 39 67
e 39 68
e 39 72
e 39 74
e 39 78
e 39 82
e 39 84
e 39 85
e 39 86
e 39 87
e 39 92
e 39 94
e 39 96
e 39 97
e 40 43
e 40 46
e 40 53
e 40 55
e 40 56
e 40 57
e 40 58
e 40 60
e 40 63
e 40 67
e 40 68
e 40 72
e 40 76
e 40 77
e 40 81
e 40 88
e 40 94
e 40 99
e 40 100
e 41 44
e 41 55
e 41 56
e 41 60
e 41 61
e 41 62
e 41 63
e 41 66
e 41 67
e 41 69
e 41 72
e 41 73
e 41 74
e 41 83
e 41 87
e 41 89
e 41 90
e 41 93
e 42 45
e 42 50
e 42 60
e 42 62
e 42 65
e 42 68
e 42 69
e 42 75
e 42 80
e 42 87
e 42 89
e 42 90
e 42 92
e 42 93
e 42 94
e 42 97
e 43 44
e 43 49
e 43 53
e 43 54
e 43 55
e 43 58
e 43 60
e 43 61
e 43 63
e 43 64
e 43 68
e 43 70
e 43 77
e 43 79
e 43 80
e 43 81
e 43 86
e 43 88
e 43 89
e 44 48
e 44 58
e 44 59
e 44 62
e 44 64
e 44 66
e 44 69
e 44 72
e 44 74
e 44 77
e 44 78
e 44 81
e 44 85
e 44 87
e 44 90
e 44 95
e 45 49
e 45 50
e 45 55
e 45 56
e 45 59
e 45 63
e 45 64
e 45 65
e 45 66
e 45 67
e 45 71
e 45 79
e 45 81
e 45 85
e 45 88
e 45 89
e 45 93
e 45 95
e 46 47
e 46 49
e 46 50
e 46 53
e 46 60
e 46 68
e 46 73
e 46 75
e 46 77
e 46 79
e 46 80
e 46 82
e 46 83
e 46 88
e 46 93
e 46 98
e 47 52
e 47 53
e 47 59
e 47 61
e 47 66
e 47 68
e 47 69
e 47 72
e 47 74
e 47 75
e 47 77
e 47 79
e 47 84
e 47 86
e 47 88
e 47 89
e 47 91
e 47 93
e 47 94
e 47 95
e 47 100
e 48 50
e 48 51
e 48 60
e 48 64
e 48 65
e 48 73
e 48 74
e 48 76
e 48 79
e 48 80
e 48 83
e 48 84
e 48 85
e 48 93
e 48 95
e 48 99
e 49 57
e 49 59
e 49 62
e 49 68
e 49 73
e 49 76
e 49 78
e 49 83
e 49 84
e 49 85
e 49 87
e 49 88
e 49 89
e 49 93
e 49 94
e 49 95
e 49 96
e 49 100
e 50 56
e 50 59
e 50 61
e 50 64
e 50 69
e 50 71
e 50 72
e 50 73
e 50 77
e 50 80
e 50 86
e 50 90
e 50 92
e 50 94
e 50 96
e 50 98
e 51 55
e 51 57
e 51 62
e 51 63
e 51 69
e 51 70
e 51 71
e 51 72
e 51 76
e 51 79
e 51 80
e 51 82
e 51 87
e 51 90
e 51 92
e 52 55
e 52 57
e 52 60
e 52 62
e 52 64
e 52 71
e 52 72
e 52 76
e 52 78
e 52 80
e 52 84
e 52 88
e 52 91
e 52 97
e 52 98
e 53 57
e 53 58
e 53 64
e 53 65
e 53 69
e 53 70
e 53 74
e 53 76
e 53 77
e 53 88
e 53 90
e 53 96
e 53 99
e 54 59
e 54 65
e 54 70
e 54 73
e 54 74
e 54 80
e 54 88
e 54 91
e 54 94
e 55 65
e 55 68
e 55 69
e 55 71
e 55 75
e 55 78
e 55 84
e 55 85
e 55 87
e 55 88
e 55 89
e 55 99
e 56 59
e 56 60
e 56 61
e 56 66
e 56 67
e 56 73
e 56 81
e 56 83
e 56 88
e 56 94
e 56 98
e 57 58
e 57 63
e 57 64
e 57 67
e 57 70
e 57 72
e 57 73
e 57 74
e 57 80
e 57 89
e 57 91
e 57 94
e 57 95
e 57 98
e 58 62
e 58 63
e 58 72
e 58 76
e 58 79
e 58 81
e 58 82
e 58 86
e 58 88
e 58 89
e 58 90
e 58 96
e 58 100
e 59 61
e 59 62
e 59 64
e 59 66
e 59 79
e 59 83
e 59 89
e 59 90
e 59 91
e 59 94
e 59 98
e 59 100
e 60 62
e 60 63
e 60 66
e 60 67
e 60 70
e 60 71
e 60 75
e 60 76
e 60 79
e 60 80
e 60 85
e 60 93
e 60 96
e 60 97
e 60 100
e 61 68
e 61 71
e 61 74
e 61 78
e 61 82
e 61 89
e 61 91
e 61 93
e 61 97
e 61 99
e 62 69
e 62 70
e 62 73
e 62 75
e 62 82
e 62 83
e 62 84
e 62 85
e 62 89
e 62 90
e 62 92
e 62 96
e 63 64
e 63 69
e 63 74
e 63 75
e 63 81
e 63 82
e 63 84
e 63 91
e 63 99
e 64 65
e 64 66
e 64 69
e 64 70
e 64 76
e 64 77
e 64 78
e 64 82
e 64 83
e 64 98
e 65 68
e 65 70
e 65 78
e 65 79
e 65 80
e 65 84
e 65 89
e 65 90
e 65 95
e 65 100
e 66 77
e 66 80
e 66 81
e 66 87
e 66 94
e 66 95
e 66 98
e 66 100
e 67 70
e 67 71
e 67 72
e 67 76
e 67 77
e 67 78
e 67 79
e 67 86
e 67 89
e 67 93
e 67 94
e 68 70
e 68 74
e 68 78
e 68 82
e 68 83
e 68 88
e 68 89
e 68 97
e 69 73
e 69 77
e 69 83
e 69 86
e 69 91
e 69 92
e 69 93
e 70 71
e 70 77
e 70 80
e 70 81
e 70 89
e 70 96
e 71 76
e 71 78
e 71 79
e 71 86
e 71 94
e 71 95
e 71 96
e 71 99
e 72 73
e 72 80
e 72 82
e 72 85
e 72 90
e 72 93
e 72 95
e 72 97
e 73 74
e 73 77
e 73 79
e 73 82
e 73 87
e 73 90
e 73 94
e 74 76
e 74 88
e 74 91
e 74 93
e 74 94
e 75 83
e 75 84
e 75 85
e 75 86
e 75 88
e 75 90
e 75 91
e 75 95
e 75 98
e 76 83
e 76 86
e 76 88
e 76 92
e 76 100
e 77 85
e 77 92
e 77 96
e 78 80
e 78 85
e 78 90
e 78 99
e 78 100
e 79 82
e 79 86
e 79 87
e 79 89
e 79 93
e 79 97
e 80 81
e 80 83
e 80 84
e 80 87
e 80 99
e 81 82
e 81 88
e 81 90
e 81 93
e 81 95
e 82 84
e 82 90
e 82 96
e 82 97
e 82 98
e 83 84
e 83 85
e 83 95
e 83 99
e 83 100
e 84 89
e 84 94
e 84 95
e 84 96
e 85 92
e 85 96
e 85 98
e 86 92
e 86 93
e 86 94
e 86 98
e 86 100
e 87 96
e 87 98
e 87 99
e 88 90
e 88 91
e 88 95
e 88 98
e 88 99
e 89 92
e 89 93
e 89 95
e 89 99
e 90 95
e 90 96
e 90 100
e 91 96
e 91 97
e 92 95
e 93 95
e 93 97
e 93 98
e 93 100
e 94 95
e 94 97
e 94 100
e 95 99
e 96 98
e 96 100
e 97 99
e 97 100
e 99 100
